32
100
69	1
65	1
64	1
63	3
62	1
61	1
60	1
59	2
58	1
56	1
55	1
53	1
51	2
50	2
44	1
42	2
41	1
38	2
37	3
35	1
34	1
32	1
31	2
28	2
27	1
24	1
19	1
18	1
17	2
15	4
14	3
11	2
